(set-logic QF_UF)
(declare-fun car () Bool)
(declare-fun circuit () Bool)
(declare-fun clk () Bool)
(declare-fun prt () Bool)
(assert (not (or (or (not car) clk) (not (not car)))))
(assert (not (not (or (not car) clk))))
(check-sat)
(exit)
